\ This file has been generated by DOcplex
\ ENCODING=ISO-8859-1
\Problem name: docplex_model1

Maximize
 obj: 45 x_1 + 48 x_2 + 35 x_3
Subject To
 c1: 45 x_1 + 48 x_2 + 35 x_3 <= 10

Bounds
 0 <= x_1 <= 1
 0 <= x_2 <= 1
 0 <= x_3 <= 1

Binaries
 x_1 x_2 x_3
End
